-252.0 4.0 8.0 4.0 4.0 3.0 10.0 8.0 6.0 5.0 0.0 9.0 7.0 3.0 0.0 7.0 8.0 1.0 2.0 1.0 6.0 9.0 7.0 3.0 7.0 10.0 8.0 1.0 8.0 6.0 9.0 10.0 9.0 3.0 1.0 0.0 1.0 8.0 7.0 5.0 2.0 3.0 2.0 0.0 3.0 6.0 2.0 9.0 0.0 9.0 8.0 
4.0 -278.0 1.0 9.0 5.0 5.0 7.0 4.0 8.0 4.0 4.0 8.0 9.0 7.0 3.0 3.0 5.0 4.0 9.0 10.0 10.0 8.0 10.0 5.0 1.0 2.0 3.0 8.0 8.0 1.0 1.0 6.0 10.0 1.0 5.0 3.0 6.0 9.0 7.0 4.0 7.0 6.0 10.0 1.0 9.0 8.0 5.0 6.0 4.0 5.0 0.0 
8.0 1.0 -238.0 9.0 6.0 4.0 7.0 1.0 4.0 2.0 1.0 9.0 5.0 0.0 5.0 6.0 3.0 3.0 1.0 7.0 4.0 3.0 8.0 0.0 8.0 6.0 6.0 5.0 4.0 5.0 10.0 1.0 6.0 6.0 5.0 7.0 10.0 2.0 4.0 8.0 9.0 9.0 2.0 1.0 0.0 7.0 3.0 5.0 10.0 0.0 2.0 
4.0 9.0 9.0 -287.0 9.0 4.0 7.0 1.0 3.0 4.0 8.0 6.0 0.0 0.0 10.0 7.0 5.0 4.0 2.0 9.0 5.0 10.0 4.0 2.0 7.0 2.0 7.0 10.0 9.0 5.0 10.0 2.0 4.0 7.0 10.0 5.0 0.0 3.0 8.0 4.0 10.0 3.0 10.0 2.0 0.0 10.0 8.0 10.0 0.0 9.0 10.0 
4.0 5.0 6.0 9.0 -246.0 4.0 6.0 3.0 9.0 6.0 7.0 5.0 2.0 3.0 4.0 5.0 6.0 3.0 4.0 10.0 2.0 0.0 8.0 7.0 5.0 10.0 6.0 6.0 8.0 1.0 4.0 1.0 8.0 4.0 6.0 1.0 5.0 5.0 3.0 1.0 5.0 6.0 10.0 8.0 0.0 1.0 0.0 8.0 3.0 10.0 3.0 
3.0 5.0 4.0 4.0 4.0 -256.0 8.0 5.0 5.0 4.0 5.0 6.0 5.0 5.0 9.0 5.0 3.0 8.0 4.0 9.0 6.0 8.0 10.0 1.0 4.0 3.0 4.0 5.0 7.0 8.0 2.0 6.0 10.0 0.0 7.0 7.0 2.0 1.0 4.0 8.0 3.0 1.0 7.0 8.0 1.0 1.0 7.0 5.0 7.0 7.0 5.0 
10.0 7.0 7.0 7.0 6.0 8.0 -268.0 2.0 3.0 0.0 6.0 9.0 1.0 1.0 9.0 1.0 6.0 10.0 4.0 1.0 9.0 1.0 8.0 2.0 3.0 5.0 2.0 6.0 8.0 4.0 4.0 5.0 9.0 6.0 1.0 10.0 4.0 8.0 7.0 5.0 8.0 2.0 4.0 6.0 6.0 6.0 9.0 1.0 10.0 3.0 8.0 
8.0 4.0 1.0 1.0 3.0 5.0 2.0 -222.0 6.0 3.0 3.0 0.0 6.0 6.0 0.0 3.0 8.0 1.0 9.0 9.0 8.0 3.0 6.0 6.0 7.0 5.0 6.0 5.0 5.0 0.0 0.0 5.0 4.0 3.0 1.0 9.0 2.0 2.0 1.0 2.0 6.0 3.0 3.0 10.0 1.0 8.0 10.0 5.0 1.0 8.0 9.0 
6.0 8.0 4.0 3.0 9.0 5.0 3.0 6.0 -258.0 10.0 10.0 2.0 6.0 0.0 9.0 7.0 5.0 9.0 2.0 5.0 8.0 0.0 1.0 0.0 7.0 2.0 8.0 4.0 7.0 10.0 7.0 6.0 3.0 1.0 9.0 8.0 9.0 1.0 0.0 3.0 1.0 6.0 6.0 5.0 9.0 6.0 2.0 0.0 7.0 7.0 6.0 
5.0 4.0 2.0 4.0 6.0 4.0 0.0 3.0 10.0 -255.0 7.0 9.0 4.0 10.0 2.0 2.0 4.0 8.0 4.0 9.0 5.0 10.0 5.0 4.0 4.0 3.0 6.0 8.0 6.0 3.0 2.0 3.0 10.0 3.0 6.0 7.0 10.0 7.0 3.0 6.0 5.0 5.0 1.0 9.0 0.0 1.0 4.0 5.0 1.0 9.0 7.0 
0.0 4.0 1.0 8.0 7.0 5.0 6.0 3.0 10.0 7.0 -259.0 9.0 6.0 10.0 10.0 5.0 8.0 0.0 6.0 6.0 7.0 10.0 2.0 3.0 0.0 4.0 6.0 3.0 6.0 3.0 5.0 7.0 8.0 4.0 4.0 3.0 6.0 6.0 6.0 8.0 2.0 9.0 5.0 1.0 7.0 0.0 1.0 4.0 5.0 9.0 4.0 
9.0 8.0 9.0 6.0 5.0 6.0 9.0 0.0 2.0 9.0 9.0 -242.0 1.0 4.0 9.0 3.0 4.0 9.0 2.0 1.0 10.0 9.0 5.0 2.0 1.0 1.0 3.0 4.0 3.0 8.0 1.0 0.0 9.0 7.0 9.0 5.0 6.0 1.0 5.0 0.0 6.0 3.0 1.0 9.0 5.0 5.0 2.0 3.0 1.0 6.0 7.0 
7.0 9.0 5.0 0.0 2.0 5.0 1.0 6.0 6.0 4.0 6.0 1.0 -226.0 1.0 1.0 6.0 7.0 7.0 3.0 3.0 1.0 2.0 4.0 3.0 6.0 4.0 2.0 8.0 7.0 7.0 10.0 8.0 5.0 3.0 8.0 1.0 5.0 0.0 7.0 4.0 4.0 0.0 8.0 0.0 10.0 2.0 7.0 10.0 5.0 5.0 0.0 
3.0 7.0 0.0 0.0 3.0 5.0 1.0 6.0 0.0 10.0 10.0 4.0 1.0 -225.0 2.0 4.0 2.0 7.0 8.0 2.0 7.0 1.0 2.0 10.0 0.0 0.0 8.0 3.0 10.0 4.0 7.0 8.0 3.0 0.0 1.0 2.0 1.0 7.0 5.0 10.0 8.0 3.0 8.0 3.0 0.0 9.0 3.0 1.0 10.0 10.0 6.0 
0.0 3.0 5.0 10.0 4.0 9.0 9.0 0.0 9.0 2.0 10.0 9.0 1.0 2.0 -278.0 5.0 9.0 10.0 7.0 8.0 7.0 7.0 0.0 2.0 5.0 1.0 10.0 2.0 2.0 6.0 6.0 0.0 1.0 9.0 8.0 8.0 5.0 7.0 8.0 7.0 4.0 10.0 2.0 0.0 4.0 9.0 9.0 8.0 4.0 10.0 5.0 
7.0 3.0 6.0 7.0 5.0 5.0 1.0 3.0 7.0 2.0 5.0 3.0 6.0 4.0 5.0 -237.0 7.0 5.0 8.0 5.0 1.0 1.0 10.0 9.0 4.0 4.0 6.0 2.0 4.0 4.0 9.0 0.0 3.0 2.0 6.0 8.0 5.0 3.0 9.0 3.0 10.0 3.0 10.0 7.0 2.0 6.0 0.0 6.0 6.0 0.0 0.0 
8.0 5.0 3.0 5.0 6.0 3.0 6.0 8.0 5.0 4.0 8.0 4.0 7.0 2.0 9.0 7.0 -244.0 9.0 2.0 1.0 9.0 3.0 2.0 3.0 10.0 5.0 9.0 7.0 1.0 4.0 4.0 0.0 1.0 0.0 1.0 5.0 3.0 2.0 9.0 6.0 6.0 6.0 3.0 8.0 1.0 9.0 9.0 0.0 9.0 1.0 6.0 
1.0 4.0 3.0 4.0 3.0 8.0 10.0 1.0 9.0 8.0 0.0 9.0 7.0 7.0 10.0 5.0 9.0 -268.0 9.0 7.0 5.0 2.0 9.0 6.0 5.0 4.0 9.0 0.0 1.0 6.0 4.0 9.0 6.0 8.0 7.0 0.0 8.0 9.0 10.0 2.0 1.0 2.0 7.0 7.0 7.0 0.0 8.0 0.0 6.0 2.0 4.0 
2.0 9.0 1.0 2.0 4.0 4.0 4.0 9.0 2.0 4.0 6.0 2.0 3.0 8.0 7.0 8.0 2.0 9.0 -238.0 3.0 5.0 6.0 8.0 4.0 10.0 1.0 5.0 9.0 5.0 10.0 3.0 6.0 5.0 2.0 8.0 3.0 1.0 5.0 5.0 10.0 6.0 3.0 1.0 0.0 0.0 0.0 3.0 9.0 7.0 3.0 6.0 
1.0 10.0 7.0 9.0 10.0 9.0 1.0 9.0 5.0 9.0 6.0 1.0 3.0 2.0 8.0 5.0 1.0 7.0 3.0 -267.0 6.0 7.0 9.0 8.0 5.0 2.0 3.0 1.0 8.0 6.0 7.0 8.0 2.0 7.0 7.0 3.0 2.0 0.0 9.0 5.0 4.0 1.0 8.0 8.0 6.0 0.0 8.0 8.0 8.0 3.0 2.0 
6.0 10.0 4.0 5.0 2.0 6.0 9.0 8.0 8.0 5.0 7.0 10.0 1.0 7.0 7.0 1.0 9.0 5.0 5.0 6.0 -273.0 5.0 2.0 5.0 7.0 5.0 2.0 6.0 4.0 7.0 6.0 8.0 5.0 7.0 2.0 0.0 5.0 9.0 10.0 1.0 6.0 4.0 5.0 2.0 4.0 2.0 9.0 6.0 7.0 7.0 4.0 
9.0 8.0 3.0 10.0 0.0 8.0 1.0 3.0 0.0 10.0 10.0 9.0 2.0 1.0 7.0 1.0 3.0 2.0 6.0 7.0 5.0 -248.0 3.0 1.0 1.0 10.0 5.0 9.0 2.0 1.0 2.0 0.0 7.0 3.0 5.0 1.0 5.0 1.0 5.0 10.0 8.0 9.0 10.0 2.0 10.0 0.0 10.0 7.0 8.0 2.0 6.0 
7.0 10.0 8.0 4.0 8.0 10.0 8.0 6.0 1.0 5.0 2.0 5.0 4.0 2.0 0.0 10.0 2.0 9.0 8.0 9.0 2.0 3.0 -268.0 8.0 0.0 4.0 5.0 1.0 6.0 0.0 6.0 10.0 4.0 8.0 6.0 3.0 1.0 8.0 0.0 3.0 10.0 3.0 10.0 4.0 10.0 2.0 10.0 1.0 7.0 7.0 8.0 
3.0 5.0 0.0 2.0 7.0 1.0 2.0 6.0 0.0 4.0 3.0 2.0 3.0 10.0 2.0 9.0 3.0 6.0 4.0 8.0 5.0 1.0 8.0 -235.0 1.0 9.0 7.0 2.0 0.0 6.0 5.0 5.0 3.0 10.0 4.0 9.0 5.0 2.0 7.0 2.0 3.0 8.0 8.0 1.0 7.0 5.0 2.0 6.0 10.0 8.0 6.0 
7.0 1.0 8.0 7.0 5.0 4.0 3.0 7.0 7.0 4.0 0.0 1.0 6.0 0.0 5.0 4.0 10.0 5.0 10.0 5.0 7.0 1.0 0.0 1.0 -226.0 2.0 7.0 6.0 5.0 8.0 5.0 0.0 4.0 3.0 9.0 3.0 7.0 3.0 10.0 9.0 3.0 0.0 7.0 2.0 3.0 4.0 1.0 7.0 6.0 3.0 1.0 
10.0 2.0 6.0 2.0 10.0 3.0 5.0 5.0 2.0 3.0 4.0 1.0 4.0 0.0 1.0 4.0 5.0 4.0 1.0 2.0 5.0 10.0 4.0 9.0 2.0 -229.0 0.0 2.0 4.0 3.0 1.0 5.0 0.0 3.0 7.0 8.0 8.0 8.0 9.0 10.0 7.0 7.0 9.0 4.0 1.0 6.0 4.0 8.0 0.0 7.0 4.0 
8.0 3.0 6.0 7.0 6.0 4.0 2.0 6.0 8.0 6.0 6.0 3.0 2.0 8.0 10.0 6.0 9.0 9.0 5.0 3.0 2.0 5.0 5.0 7.0 7.0 0.0 -249.0 3.0 1.0 1.0 6.0 9.0 8.0 0.0 0.0 10.0 7.0 1.0 1.0 4.0 9.0 8.0 3.0 1.0 8.0 1.0 6.0 10.0 3.0 1.0 5.0 
1.0 8.0 5.0 10.0 6.0 5.0 6.0 5.0 4.0 8.0 3.0 4.0 8.0 3.0 2.0 2.0 7.0 0.0 9.0 1.0 6.0 9.0 1.0 2.0 6.0 2.0 3.0 -253.0 2.0 3.0 8.0 2.0 8.0 10.0 4.0 2.0 4.0 8.0 8.0 4.0 4.0 10.0 3.0 8.0 2.0 2.0 9.0 2.0 6.0 10.0 8.0 
8.0 8.0 4.0 9.0 8.0 7.0 8.0 5.0 7.0 6.0 6.0 3.0 7.0 10.0 2.0 4.0 1.0 1.0 5.0 8.0 4.0 2.0 6.0 0.0 5.0 4.0 1.0 2.0 -235.0 10.0 7.0 0.0 0.0 8.0 2.0 4.0 7.0 1.0 7.0 4.0 6.0 2.0 6.0 4.0 1.0 2.0 7.0 2.0 6.0 4.0 4.0 
6.0 1.0 5.0 5.0 1.0 8.0 4.0 0.0 10.0 3.0 3.0 8.0 7.0 4.0 6.0 4.0 4.0 6.0 10.0 6.0 7.0 1.0 0.0 6.0 8.0 3.0 1.0 3.0 10.0 -247.0 4.0 3.0 9.0 2.0 1.0 2.0 9.0 1.0 6.0 10.0 8.0 6.0 2.0 3.0 4.0 8.0 2.0 9.0 8.0 7.0 3.0 
9.0 1.0 10.0 10.0 4.0 2.0 4.0 0.0 7.0 2.0 5.0 1.0 10.0 7.0 6.0 9.0 4.0 4.0 3.0 7.0 6.0 2.0 6.0 5.0 5.0 1.0 6.0 8.0 7.0 4.0 -230.0 7.0 2.0 8.0 4.0 1.0 0.0 2.0 3.0 6.0 5.0 0.0 10.0 3.0 5.0 2.0 1.0 1.0 7.0 5.0 3.0 
10.0 6.0 1.0 2.0 1.0 6.0 5.0 5.0 6.0 3.0 7.0 0.0 8.0 8.0 0.0 0.0 0.0 9.0 6.0 8.0 8.0 0.0 10.0 5.0 0.0 5.0 9.0 2.0 0.0 3.0 7.0 -213.0 1.0 1.0 1.0 3.0 1.0 1.0 8.0 6.0 5.0 4.0 5.0 6.0 1.0 6.0 7.0 6.0 7.0 2.0 2.0 
9.0 10.0 6.0 4.0 8.0 10.0 9.0 4.0 3.0 10.0 8.0 9.0 5.0 3.0 1.0 3.0 1.0 6.0 5.0 2.0 5.0 7.0 4.0 3.0 4.0 0.0 8.0 8.0 0.0 9.0 2.0 1.0 -262.0 6.0 7.0 2.0 8.0 2.0 1.0 0.0 7.0 2.0 3.0 9.0 8.0 5.0 7.0 6.0 9.0 4.0 9.0 
3.0 1.0 6.0 7.0 4.0 0.0 6.0 3.0 1.0 3.0 4.0 7.0 3.0 0.0 9.0 2.0 0.0 8.0 2.0 7.0 7.0 3.0 8.0 10.0 3.0 3.0 0.0 10.0 8.0 2.0 8.0 1.0 6.0 -237.0 10.0 10.0 0.0 9.0 4.0 6.0 10.0 6.0 9.0 5.0 0.0 1.0 2.0 9.0 7.0 4.0 0.0 
1.0 5.0 5.0 10.0 6.0 7.0 1.0 1.0 9.0 6.0 4.0 9.0 8.0 1.0 8.0 6.0 1.0 7.0 8.0 7.0 2.0 5.0 6.0 4.0 9.0 7.0 0.0 4.0 2.0 1.0 4.0 1.0 7.0 10.0 -265.0 9.0 9.0 6.0 7.0 3.0 8.0 1.0 2.0 0.0 7.0 7.0 3.0 9.0 8.0 5.0 9.0 
0.0 3.0 7.0 5.0 1.0 7.0 10.0 9.0 8.0 7.0 3.0 5.0 1.0 2.0 8.0 8.0 5.0 0.0 3.0 3.0 0.0 1.0 3.0 9.0 3.0 8.0 10.0 2.0 4.0 2.0 1.0 3.0 2.0 10.0 9.0 -226.0 6.0 2.0 2.0 1.0 4.0 8.0 8.0 1.0 3.0 2.0 9.0 6.0 8.0 0.0 4.0 
1.0 6.0 10.0 0.0 5.0 2.0 4.0 2.0 9.0 10.0 6.0 6.0 5.0 1.0 5.0 5.0 3.0 8.0 1.0 2.0 5.0 5.0 1.0 5.0 7.0 8.0 7.0 4.0 7.0 9.0 0.0 1.0 8.0 0.0 9.0 6.0 -228.0 5.0 0.0 5.0 9.0 4.0 1.0 5.0 3.0 3.0 1.0 10.0 5.0 1.0 3.0 
8.0 9.0 2.0 3.0 5.0 1.0 8.0 2.0 1.0 7.0 6.0 1.0 0.0 7.0 7.0 3.0 2.0 9.0 5.0 0.0 9.0 1.0 8.0 2.0 3.0 8.0 1.0 8.0 1.0 1.0 2.0 1.0 2.0 9.0 6.0 2.0 5.0 -223.0 2.0 1.0 10.0 10.0 0.0 4.0 4.0 0.0 10.0 9.0 10.0 8.0 0.0 
7.0 7.0 4.0 8.0 3.0 4.0 7.0 1.0 0.0 3.0 6.0 5.0 7.0 5.0 8.0 9.0 9.0 10.0 5.0 9.0 10.0 5.0 0.0 7.0 10.0 9.0 1.0 8.0 7.0 6.0 3.0 8.0 1.0 4.0 7.0 2.0 0.0 2.0 -279.0 2.0 2.0 8.0 9.0 9.0 9.0 2.0 2.0 4.0 9.0 6.0 10.0 
5.0 4.0 8.0 4.0 1.0 8.0 5.0 2.0 3.0 6.0 8.0 0.0 4.0 10.0 7.0 3.0 6.0 2.0 10.0 5.0 1.0 10.0 3.0 2.0 9.0 10.0 4.0 4.0 4.0 10.0 6.0 6.0 0.0 6.0 3.0 1.0 5.0 1.0 2.0 -235.0 6.0 3.0 3.0 9.0 1.0 7.0 2.0 2.0 6.0 1.0 7.0 
2.0 7.0 9.0 10.0 5.0 3.0 8.0 6.0 1.0 5.0 2.0 6.0 4.0 8.0 4.0 10.0 6.0 1.0 6.0 4.0 6.0 8.0 10.0 3.0 3.0 7.0 9.0 4.0 6.0 8.0 5.0 5.0 7.0 10.0 8.0 4.0 9.0 10.0 2.0 6.0 -280.0 5.0 4.0 6.0 5.0 1.0 4.0 6.0 3.0 2.0 7.0 
3.0 6.0 9.0 3.0 6.0 1.0 2.0 3.0 6.0 5.0 9.0 3.0 0.0 3.0 10.0 3.0 6.0 2.0 3.0 1.0 4.0 9.0 3.0 8.0 0.0 7.0 8.0 10.0 2.0 6.0 0.0 4.0 2.0 6.0 1.0 8.0 4.0 10.0 8.0 3.0 5.0 -236.0 0.0 7.0 2.0 6.0 5.0 8.0 2.0 4.0 10.0 
2.0 10.0 2.0 10.0 10.0 7.0 4.0 3.0 6.0 1.0 5.0 1.0 8.0 8.0 2.0 10.0 3.0 7.0 1.0 8.0 5.0 10.0 10.0 8.0 7.0 9.0 3.0 3.0 6.0 2.0 10.0 5.0 3.0 9.0 2.0 8.0 1.0 0.0 9.0 3.0 4.0 0.0 -262.0 0.0 1.0 8.0 3.0 6.0 7.0 9.0 3.0 
0.0 1.0 1.0 2.0 8.0 8.0 6.0 10.0 5.0 9.0 1.0 9.0 0.0 3.0 0.0 7.0 8.0 7.0 0.0 8.0 2.0 2.0 4.0 1.0 2.0 4.0 1.0 8.0 4.0 3.0 3.0 6.0 9.0 5.0 0.0 1.0 5.0 4.0 9.0 9.0 6.0 7.0 0.0 -215.0 4.0 3.0 7.0 0.0 4.0 9.0 0.0 
3.0 9.0 0.0 0.0 0.0 1.0 6.0 1.0 9.0 0.0 7.0 5.0 10.0 0.0 4.0 2.0 1.0 7.0 0.0 6.0 4.0 10.0 10.0 7.0 3.0 1.0 8.0 2.0 1.0 4.0 5.0 1.0 8.0 0.0 7.0 3.0 3.0 4.0 9.0 1.0 5.0 2.0 1.0 4.0 -212.0 4.0 3.0 9.0 9.0 5.0 8.0 
6.0 8.0 7.0 10.0 1.0 1.0 6.0 8.0 6.0 1.0 0.0 5.0 2.0 9.0 9.0 6.0 9.0 0.0 0.0 0.0 2.0 0.0 2.0 5.0 4.0 6.0 1.0 2.0 2.0 8.0 2.0 6.0 5.0 1.0 7.0 2.0 3.0 0.0 2.0 7.0 1.0 6.0 8.0 3.0 4.0 -204.0 1.0 6.0 4.0 6.0 4.0 
2.0 5.0 3.0 8.0 0.0 7.0 9.0 10.0 2.0 4.0 1.0 2.0 7.0 3.0 9.0 0.0 9.0 8.0 3.0 8.0 9.0 10.0 10.0 2.0 1.0 4.0 6.0 9.0 7.0 2.0 1.0 7.0 7.0 2.0 3.0 9.0 1.0 10.0 2.0 2.0 4.0 5.0 3.0 7.0 3.0 1.0 -252.0 1.0 5.0 10.0 9.0 
9.0 6.0 5.0 10.0 8.0 5.0 1.0 5.0 0.0 5.0 4.0 3.0 10.0 1.0 8.0 6.0 0.0 0.0 9.0 8.0 6.0 7.0 1.0 6.0 7.0 8.0 10.0 2.0 2.0 9.0 1.0 6.0 6.0 9.0 9.0 6.0 10.0 9.0 4.0 2.0 6.0 8.0 6.0 0.0 9.0 6.0 1.0 -268.0 1.0 6.0 2.0 
0.0 4.0 10.0 0.0 3.0 7.0 10.0 1.0 7.0 1.0 5.0 1.0 5.0 10.0 4.0 6.0 9.0 6.0 7.0 8.0 7.0 8.0 7.0 10.0 6.0 0.0 3.0 6.0 6.0 8.0 7.0 7.0 9.0 7.0 8.0 8.0 5.0 10.0 9.0 6.0 3.0 2.0 7.0 4.0 9.0 4.0 5.0 1.0 -282.0 1.0 5.0 
9.0 5.0 0.0 9.0 10.0 7.0 3.0 8.0 7.0 9.0 9.0 6.0 5.0 10.0 10.0 0.0 1.0 2.0 3.0 3.0 7.0 2.0 7.0 8.0 3.0 7.0 1.0 10.0 4.0 7.0 5.0 2.0 4.0 4.0 5.0 0.0 1.0 8.0 6.0 1.0 2.0 4.0 9.0 9.0 5.0 6.0 10.0 6.0 1.0 -260.0 0.0 
8.0 0.0 2.0 10.0 3.0 5.0 8.0 9.0 6.0 7.0 4.0 7.0 0.0 6.0 5.0 0.0 6.0 4.0 6.0 2.0 4.0 6.0 8.0 6.0 1.0 4.0 5.0 8.0 4.0 3.0 3.0 2.0 9.0 0.0 9.0 4.0 3.0 0.0 10.0 7.0 7.0 10.0 3.0 0.0 8.0 4.0 9.0 2.0 5.0 0.0 -242.0 

